0.05, 17016
0.05, 11344
0.05, 11344
0.05, 22688
0.05, 11344
0.05, 11344
0.05, 17016
0.05, 11344
0.05, 11344
0.05, 11344
0.1, 22688
0.1, 22688
0.1, 22688
0.1, 28360
0.1, 39704
0.1, 28360
0.1, 28360
0.1, 39704
0.1, 22688
0.1, 34032
0.15, 45376
0.15, 56720
0.15, 39704
0.15, 39704
0.15, 45376
